c ---- [ banner ] ------------------------------------------------------------
c
c Kissat SAT Solver
c 
c Copyright (c) 2021-2024 Armin Biere University of Freiburg
c Copyright (c) 2019-2021 Armin Biere Johannes Kepler University Linz
c 
c Version 4.0.1 43f02cf3e992cb44653b35e5cb26f93281552ae0
c gcc (Ubuntu 13.2.0-23ubuntu4) 13.2.0 -W -Wall -O3 -DNDEBUG
c Thu Sep 12 12:27:46 CEST 2024 Linux abryzen9 6.8.0-41-generic x86_64
c
c ---- [ parsing ] -----------------------------------------------------------
c
c opened and reading DIMACS file:
c
c   /data/artifact/AMulet2.0_artifact/exp4/cnf_mfs_64/64_64_U_SP_WT_CK_GenMul_mfs.cnf
c
c parsed 'p cnf 36479 141884' header
c closing input after reading 2763234 bytes (3 MB)
c finished parsing after 0.04 seconds
c
c ---- [ options ] -----------------------------------------------------------
c
c --stable=0                       (different from default '1')
c
c ---- [ solving ] -----------------------------------------------------------
c
c  seconds switched rate     size/glue tier1  binary           remaining
c         MB reductions conflicts size  tier2     irredundant
c          level restarts redundant glue  trail           variables
c
c *  0.04 11 0 0 0  0 0   0   0 0.0 0 0 0 0 0% 29472 112410 36476 100%
c (  0.06 13 0 0 0  0 0   0   0 0.0 0 0 0 0 0% 29472 112410 36476 100%
c .  0.07 13 0 0 0  0 0   0   0 0.0 0 0 0 0 0% 29468 112410 36476 100%
c c  0.18 22 0 0 0  0 0   0   0 0.0 0 0 0 0 0% 36692 98178 32862 90%
c d  0.19 22 0 0 0  0 0   0   0 0.0 0 0 0 0 0% 29464 98178 32862 90%
c =  0.25 22 0 0 0  0 0   0   0 0.0 0 0 0 0 0% 29838 98178 32603 89%
c d  0.26 22 0 0 0  0 0   0   0 0.0 0 0 0 0 0% 29320 98178 32603 89%
c f  0.38 20 0 0 0  0 0   0   0 0.0 0 0 0 0 0% 32306 93389 34400 94%
c e  0.54 28 0 0 0  0 0   0   0 0.0 0 0 0 0 0% 10282 107647 23179 64%
c )  0.54 28 0 0 0  0 0   0   0 0.0 0 0 0 0 0% 10282 107647 23179 64%
c {  0.57 28 0 0 0  0 0   0   0 0.0 0 0 2 6 0% 10282 107647 23179 64%
c -  0.90 28 126 0 1 271 36 1001 765 3.3 17 5 2 8 18% 10342 107641 23179 64%
c -  1.06 28 229 0 2 358 33 2003 1359 3.2 16 5 2 9 21% 10402 107641 23179 64%
c c  1.18 23 257 0 2 391 31 2503 1726 3.1 15 5 3 9 19% 10486 107568 23165 64%
c d  1.19 23 257 0 2 391 31 2503 1716 3.1 15 5 3 9 19% 10458 107568 23165 64%
c u  1.21 23 257 0 2 391 31 2503 1191 3.1 15 5 3 9 19% 10471 107568 23165 64%
c v  1.23 23 257 0 2 391 31 2503 1031 3.1 15 5 3 9 19% 10471 107568 23165 64%
c w  1.25 23 257 0 2 391 31 2503 1031 3.1 15 5 3 9 19% 10471 107568 23165 64%
c x  1.27 23 257 0 2 391 31 2503 1031 3.1 15 5 3 9 19% 10563 107396 23165 64%
c =  1.33 23 257 0 2 391 31 2503 1031 3.1 15 5 3 9 19% 10785 107396 23054 63%
c
c  seconds   switched   rate       size/glue tier1    binary           remaining
c         MB  reductions conflicts       size  tier2      irredundant
c           level restarts    redundant    glue   trail           variables
c
c d  1.34 23 257 0 2 391 31 2503 1027 3.1 15 5 3 9 19% 10559 107396 23053 63%
c t  1.34 23 257 0 2 391 31 2503 1027 3.1 15 5 3 9 19% 10557 107396 23053 63%
c f  1.37 23 257 0 2 391 31 2503 1027 3.1 15 5 3 9 19% 11203 106123 23678 65%
c u  1.40 23 257 0 2 391 31 2503 960 3.1 15 5 3 9 19% 11207 106123 23678 65%
c v  1.42 23 257 0 2 391 31 2503 917 3.1 15 5 3 9 19% 11207 106123 23678 65%
c w  1.44 23 257 0 2 391 31 2503 914 3.1 15 5 3 9 19% 11207 106123 23678 65%
c x  1.47 26 257 0 2 391 31 2503 914 3.1 15 5 3 9 19% 11207 105983 23678 65%
c =  1.53 26 257 0 2 391 31 2503 914 3.1 15 5 3 9 19% 11359 105983 23602 65%
c d  1.53 26 257 0 2 391 31 2503 914 3.1 15 5 3 9 19% 11164 105983 23602 65%
c f  1.57 26 257 0 2 391 31 2503 914 3.1 15 5 3 9 19% 11508 105467 23774 65%
c -  1.79 26 266 0 3 516 31 3417 1507 3.1 15 5 2 9 20% 11543 105465 23774 65%
c -  2.45 26 281 0 4 750 37 5150 2689 3.4 21 6 2 9 22% 11592 105465 23774 65%
c -  3.17 26 316 0 5 1029 41 7150 3871 4.0 25 6 2 9 25% 11668 105461 23774 65%
c c  3.38 26 316 0 5 1062 41 7708 4332 4.0 25 6 2 9 25% 11690 105377 23747 65%
c d  3.39 26 316 0 5 1062 41 7708 4318 4.0 25 6 2 9 25% 11636 105377 23747 65%
c u  3.42 26 316 0 5 1062 41 7708 3488 4.0 25 6 2 9 25% 11647 105377 23747 65%
c v  3.46 26 316 0 5 1062 41 7708 3014 4.0 25 6 2 9 25% 11648 105377 23747 65%
c w  3.51 26 316 0 5 1062 41 7708 3005 4.0 25 6 2 9 25% 11648 105377 23747 65%
c x  3.55 26 316 0 5 1062 41 7708 3005 4.0 25 6 2 9 25% 11711 103784 23747 65%
c =  3.72 26 316 0 5 1062 41 7708 3005 4.0 25 6 2 9 25% 12809 103784 23198 64%
c
c  seconds   switched    rate       size/glue tier1    binary           remaining
c         MB  reductions  conflicts       size  tier2      irredundant
c           level  restarts    redundant    glue   trail           variables
c
c d  3.73 26 316 0 5 1062 41 7708 2987 4.0 25 6 2 9 25% 11589 103784 23197 64%
c t  3.75 26 316 0 5 1062 41 7708 2987 4.0 25 6 2 9 25% 11568 103784 23197 64%
c f  3.80 26 316 0 5 1062 41 7708 2987 4.0 25 6 2 9 25% 13670 100619 24252 66%
c u  3.91 26 316 0 5 1062 41 7708 2761 4.0 25 6 2 9 25% 13676 100619 24252 66%
c v  3.94 26 316 0 5 1062 41 7708 2646 4.0 25 6 2 9 25% 13676 100619 24252 66%
c w  3.98 26 316 0 5 1062 41 7708 2644 4.0 25 6 2 9 25% 13676 100619 24252 66%
c x  4.04 26 316 0 5 1062 41 7708 2644 4.0 25 6 2 9 25% 13734 95602 24252 66%
c =  4.20 26 316 0 5 1062 41 7708 2644 4.0 25 6 2 9 25% 14392 95602 23923 66%
c d  4.21 26 316 0 5 1062 41 7708 2633 4.0 25 6 2 9 25% 13658 95602 23923 66%
c t  4.24 26 316 0 5 1062 41 7708 2633 4.0 25 6 2 9 25% 13623 95602 23923 66%
c f  4.31 26 316 0 5 1062 41 7708 2633 4.0 25 6 2 9 25% 13653 95557 23938 66%
c -  4.63 26 364 0 6 1156 39 9386 3612 4.1 25 6 2 8 24% 13731 95556 23938 66%
c o  4.74 26 356 0 6 1190 38 10392 4475 4.0 23 6 2 8 24% 13763 95556 23938 66%
c -  5.25 26 356 0 7 1354 38 11835 4998 4.3 27 6 2 7 24% 13874 95556 23938 66%
c s  5.37 26 365 0 7 1381 37 12511 5574 4.2 26 6 2 7 24% 13907 94475 23938 66%
c e  5.50 26 365 0 7 1381 37 12511 5574 4.2 26 6 2 7 24% 11626 95954 22285 61%
c 2  5.50 26 365 0 7 1381 37 12511 5574 4.2 26 6 2 7 24% 11624 95954 22285 61%
c s  5.51 26 365 0 7 1381 37 12511 5574 4.2 26 6 2 7 24% 11631 94680 22285 61%
c e  5.53 26 365 0 7 1381 37 12511 5574 4.2 26 6 2 7 24% 11609 94694 22278 61%
c ^  5.53 26 365 0 7 1381 37 12511 5574 4.2 26 6 2 7 24% 11609 94694 22278 61%
c
c  seconds   switched    rate        size/glue tier1    binary          remaining
c         MB  reductions   conflicts       size  tier2      irredundant
c           level  restarts     redundant    glue   trail          variables
c
c -  5.86 26 362 0 8 1496 35 14481 5958 4.2 26 6 2 7 24% 11671 94688 22278 61%
c d  6.06 26 345 0 8 1557 34 15788 7142 4.1 25 6 2 7 24% 11504 94687 22157 61%
c u  6.11 26 345 0 8 1557 34 15788 5717 4.1 25 6 2 7 24% 11514 94687 22157 61%
c v  6.15 26 345 0 8 1557 34 15788 5098 4.1 25 6 2 7 24% 11515 94687 22157 61%
c w  6.21 26 345 0 8 1557 34 15788 5091 4.1 25 6 2 7 24% 11515 94687 22157 61%
c x  6.24 26 345 0 8 1557 34 15788 5091 4.1 25 6 2 7 24% 11527 94321 22157 61%
c =  6.40 26 345 0 8 1557 34 15788 5091 4.1 25 6 2 7 24% 12805 94321 21518 59%
c d  6.41 26 345 0 8 1557 34 15788 5004 4.1 25 6 2 7 24% 11240 94321 21518 59%
c t  6.43 26 345 0 8 1557 34 15788 5004 4.1 25 6 2 7 24% 11231 94321 21518 59%
c f  6.49 26 345 0 8 1557 34 15788 5004 4.1 25 6 2 7 24% 11243 94289 21527 59%
c u  6.59 26 345 0 8 1557 34 15788 4670 4.1 25 6 2 7 24% 11246 94289 21527 59%
c v  6.61 26 345 0 8 1557 34 15788 4573 4.1 25 6 2 7 24% 11247 94289 21527 59%
c w  6.67 26 345 0 8 1557 34 15788 4548 4.1 25 6 2 7 24% 11247 94289 21527 59%
c x  6.70 26 345 0 8 1557 34 15788 4548 4.1 25 6 2 7 24% 11249 93999 21527 59%
c =  6.86 26 345 0 8 1557 34 15788 4548 4.1 25 6 2 7 24% 12547 93999 20878 57%
c d  6.87 26 345 0 8 1557 34 15788 4534 4.1 25 6 2 7 24% 10980 93999 20878 57%
c t  6.89 26 345 0 8 1557 34 15788 4534 4.1 25 6 2 7 24% 10978 93999 20878 57%
c f  6.91 26 345 0 8 1557 34 15788 4534 4.1 25 6 2 7 24% 10979 93987 20882 57%
c -  7.07 26 353 0 9 1588 33 17309 5252 4.0 24 6 2 7 23% 11032 93984 20882 57%
c -  7.45 26 356 0 10 1734 31 20309 7007 3.9 23 6 2 6 23% 11125 93984 20882 57%
c
c  seconds   switched     rate        size/glue tier1    binary          remaining
c         MB   reductions   conflicts       size  tier2      irredundant
c           level   restarts     redundant    glue   trail          variables
c
c o  7.47 26 355 0 10 1736 31 20407 7095 3.9 23 6 2 6 23% 11126 93984 20882 57%
c -  8.22 26 334 0 11 2018 31 23471 8860 4.0 23 6 2 6 23% 11198 93984 20882 57%
c s  8.48 26 339 0 11 2117 31 25012 10240 4.0 23 6 2 6 22% 11238 93026 20882 57%
c e  8.63 26 339 0 11 2117 31 25012 10240 4.0 23 6 2 6 22% 9956 96526 18175 50%
c 2  8.63 26 339 0 11 2117 31 25012 10240 4.0 23 6 2 6 22% 9955 96526 18175 50%
c s  8.66 26 339 0 11 2117 31 25012 10240 4.0 23 6 2 6 22% 9995 93145 18175 50%
c e  8.71 26 339 0 11 2117 31 25012 10240 4.0 23 6 2 6 22% 9974 93181 18159 50%
c ^  8.71 26 339 0 11 2117 31 25012 10240 4.0 23 6 2 6 22% 9974 93181 18159 50%
c -  9.10 26 324 0 12 2277 30 26787 8761 3.8 22 6 2 6 22% 10015 93179 18159 50%
c d  9.16 26 323 0 12 2295 30 26914 8888 3.8 22 6 2 6 22% 9939 93179 18111 50%
c u  9.22 28 323 0 12 2295 30 26914 7219 3.8 22 6 2 6 22% 9959 93179 18111 50%
c v  9.27 28 323 0 12 2295 30 26914 6291 3.8 22 6 2 6 22% 9961 93179 18111 50%
c w  9.28 28 323 0 12 2295 30 26914 6284 3.8 22 6 2 6 22% 9961 93179 18111 50%
c x  9.36 28 323 0 12 2295 30 26914 6282 3.8 22 6 2 6 22% 9992 90976 18111 50%
c =  9.57 28 323 0 12 2295 30 26914 6282 3.8 22 6 2 6 22% 11097 90975 17558 48%
c d  9.58 28 323 0 12 2295 30 26914 6216 3.8 22 6 2 6 22% 9867 90975 17556 48%
c t  9.59 28 323 0 12 2295 30 26914 6216 3.8 22 6 2 6 22% 9846 90975 17556 48%
c f  9.67 28 323 0 12 2295 30 26914 6216 3.8 22 6 2 6 22% 9869 90808 17588 48%
c u  9.72 28 323 0 12 2295 30 26914 5920 3.8 22 6 2 6 22% 9886 90808 17588 48%
c v  9.75 28 323 0 12 2295 30 26914 5765 3.8 22 6 2 6 22% 9886 90808 17588 48%
c
c  seconds   switched     rate        size/glue tier1    binary         remaining
c         MB   reductions   conflicts       size  tier2     irredundant
c           level   restarts     redundant    glue   trail         variables
c
c w  9.76 28 323 0 12 2295 30 26914 5761 3.8 22 6 2 6 22% 9886 90808 17588 48%
c x  9.86 28 323 0 12 2295 30 26914 5761 3.8 22 6 2 6 22% 9903 88213 17588 48%
c = 10.07 28 323 0 12 2295 30 26914 5761 3.8 22 6 2 6 22% 11615 88213 16732 46%
c d 10.08 28 323 0 12 2295 30 26914 5647 3.8 22 6 2 6 22% 9816 88213 16732 46%
c t 10.10 28 323 0 12 2295 30 26914 5647 3.8 22 6 2 6 22% 9798 88213 16732 46%
c f 10.14 28 323 0 12 2295 30 26914 5647 3.8 22 6 2 6 22% 9801 88201 16735 46%
c - 10.80 28 300 0 13 2584 29 30254 7652 3.6 21 6 2 6 24% 9859 88199 16735 46%
c - 11.41 28 281 0 14 2917 28 33860 9670 3.5 20 6 2 6 23% 9918 88198 16735 46%
c - 12.10 28 269 0 15 3234 27 37602 11280 3.5 20 6 2 6 23% 9977 88197 16735 46%
c o 12.45 28 267 0 15 3403 27 40566 13587 3.4 20 6 2 6 22% 10061 88192 16735 46%
c c 12.68 28 267 0 15 3471 27 41240 14153 3.4 20 6 2 6 22% 10148 87691 16619 46%
c d 12.69 28 267 0 15 3471 27 41240 13817 3.4 20 6 2 6 22% 9871 87691 16589 45%
c u 12.76 28 267 0 15 3471 27 41240 11501 3.4 20 6 2 6 22% 9899 87691 16589 45%
c v 12.83 28 267 0 15 3471 27 41240 10048 3.4 20 6 2 6 22% 9905 87691 16589 45%
c w 12.88 28 267 0 15 3471 27 41240 10048 3.4 20 6 2 6 22% 9905 87691 16589 45%
c x 12.96 28 267 0 15 3471 27 41240 10048 3.4 20 6 2 6 22% 9909 80640 16589 45%
c = 13.20 28 267 0 15 3471 27 41240 10048 3.4 20 6 2 6 22% 10717 80640 16185 44%
c d 13.21 28 267 0 15 3471 27 41240 9908 3.4 20 6 2 6 22% 9856 80640 16181 44%
c t 13.23 28 267 0 15 3471 27 41240 9908 3.4 20 6 2 6 22% 9819 80640 16181 44%
c f 13.26 28 267 0 15 3471 27 41240 9908 3.4 20 6 2 6 22% 9824 80618 16186 44%
c
c  seconds   switched     rate        size/glue tier1    binary         remaining
c         MB   reductions   conflicts       size  tier2     irredundant
c           level   restarts     redundant    glue   trail         variables
c
c u 13.34 28 267 0 15 3471 27 41240 9350 3.4 20 6 2 6 22% 9833 80618 16186 44%
c v 13.39 28 267 0 15 3471 27 41240 9039 3.4 20 6 2 6 22% 9833 80618 16186 44%
c w 13.50 28 267 0 15 3471 27 41240 9009 3.4 20 6 2 6 22% 9833 80618 16186 44%
c x 13.57 28 267 0 15 3471 27 41240 9009 3.4 20 6 2 6 22% 9840 78652 16186 44%
c = 13.82 28 267 0 15 3471 27 41240 9009 3.4 20 6 2 6 22% 10778 78652 15717 43%
c d 13.83 28 267 0 15 3471 27 41240 8800 3.4 20 6 2 6 22% 9744 78652 15717 43%
c t 13.85 28 267 0 15 3471 27 41240 8800 3.4 20 6 2 6 22% 9735 78652 15717 43%
c f 13.88 28 267 0 15 3471 27 41240 8800 3.4 20 6 2 6 22% 9736 78648 15718 43%
c - 13.90 28 267 0 16 3471 27 41475 8038 3.4 20 6 2 6 22% 9737 78648 15718 43%
c - 14.54 28 251 0 17 3748 26 45476 10200 3.3 19 6 2 6 22% 9802 78644 15718 43%
c - 15.17 28 245 0 18 4132 26 49602 12371 3.3 19 6 2 6 22% 9885 78642 15718 43%
c s 15.71 28 241 0 18 4446 26 52112 14620 3.3 19 6 2 6 22% 9903 75228 15718 43%
c e 15.83 28 241 0 18 4446 26 52112 14620 3.3 19 6 2 6 22% 8248 78108 14439 40%
c s 15.84 28 241 0 18 4446 26 52112 14620 3.3 19 6 2 6 22% 8265 77323 14439 40%
c e 15.86 28 241 0 18 4446 26 52112 14620 3.3 19 6 2 6 22% 8237 77360 14417 40%
c ^ 15.86 28 241 0 18 4446 26 52112 14620 3.3 19 6 2 6 22% 8237 77360 14417 40%
c - 16.40 28 237 0 19 4669 26 53844 12497 3.2 19 6 2 6 22% 8247 77359 14417 40%
c - 17.47 28 229 0 20 5179 26 58202 14565 3.1 19 6 2 6 23% 8296 77359 14417 40%
c c 17.64 28 229 0 20 5214 26 58877 15083 3.1 19 6 2 6 23% 8394 76925 14349 39%
c d 17.65 28 229 0 20 5214 26 58877 14861 3.1 19 6 2 6 23% 8258 76925 14349 39%
c
c  seconds   switched     rate         size/glue tier1    binary         remaining
c         MB   reductions   conflicts        size  tier2     irredundant
c           level   restarts      redundant    glue   trail         variables
c
c u 17.73 28 229 0 20 5214 26 58877 12302 3.1 19 6 2 6 23% 8281 76925 14349 39%
c v 17.80 28 229 0 20 5214 26 58877 10690 3.1 19 6 2 6 23% 8281 76925 14349 39%
c w 17.84 28 229 0 20 5214 26 58877 10653 3.1 19 6 2 6 23% 8281 76925 14349 39%
c x 17.95 28 229 0 20 5214 26 58877 10643 3.1 19 6 2 6 23% 8284 75840 14349 39%
c = 18.31 28 229 0 20 5214 26 58877 10643 3.1 19 6 2 6 23% 8502 75840 14240 39%
c d 18.32 28 229 0 20 5214 26 58877 10510 3.1 19 6 2 6 23% 8254 75840 14237 39%
c t 18.34 28 229 0 20 5214 26 58877 10510 3.1 19 6 2 6 23% 8236 75840 14237 39%
c f 18.39 28 229 0 20 5214 26 58877 10510 3.1 19 6 2 6 23% 8245 75798 14243 39%
c c 18.46 28 229 0 20 5214 26 58877 10505 3.1 19 6 2 6 23% 8248 75790 14242 39%
c d 18.47 28 229 0 20 5214 26 58877 10505 3.1 19 6 2 6 23% 8246 75790 14242 39%
c u 18.53 28 229 0 20 5214 26 58877 9952 3.1 19 6 2 6 23% 8251 75790 14242 39%
c v 18.57 28 229 0 20 5214 26 58877 9709 3.1 19 6 2 6 23% 8251 75790 14242 39%
c w 18.61 28 229 0 20 5214 26 58877 9697 3.1 19 6 2 6 23% 8251 75790 14242 39%
c x 18.79 28 229 0 20 5214 26 58877 9692 3.1 19 6 2 6 23% 8269 74074 14242 39%
c = 19.15 28 229 0 20 5214 26 58877 9692 3.1 19 6 2 6 23% 8419 74072 14167 39%
c d 19.15 28 229 0 20 5214 26 58877 9640 3.1 19 6 2 6 23% 8261 74072 14166 39%
c t 19.17 28 229 0 20 5214 26 58877 9640 3.1 19 6 2 6 23% 8257 74072 14166 39%
c - 20.31 28 220 0 21 5766 26 62674 11777 3.1 18 6 2 6 24% 8270 74070 14166 39%
c - 21.12 28 217 0 22 6223 26 67257 14137 3.0 18 6 2 5 24% 8313 74068 14166 39%
c o 21.54 28 219 0 22 6431 25 70571 16963 3.0 18 6 2 5 24% 8368 74065 14166 39%
c
c  seconds   switched     rate         size/glue tier1    binary         remaining
c         MB   reductions   conflicts        size  tier2     irredundant
c           level   restarts      redundant    glue   trail         variables
c
c - 21.90 28 217 0 23 6622 25 71948 16191 3.0 18 6 2 5 24% 8382 74064 14166 39%
c - 22.83 28 209 0 24 7113 25 76743 18018 2.9 18 6 2 5 23% 8432 74062 14166 39%
c d 23.84 28 206 0 24 7638 26 79955 20756 3.0 18 6 2 5 23% 8338 74062 14100 39%
c u 23.95 28 206 0 24 7638 26 79955 17357 3.0 18 6 2 5 23% 8368 74062 14100 39%
c v 24.04 28 206 0 24 7638 26 79955 15637 3.0 18 6 2 5 23% 8374 74062 14100 39%
c w 24.18 28 206 0 24 7638 26 79955 15628 3.0 18 6 2 5 23% 8374 74062 14100 39%
c x 24.28 28 206 0 24 7638 26 79955 15626 3.0 18 6 2 5 23% 8391 73662 14100 39%
c = 24.40 28 206 0 24 7638 26 79955 15626 3.0 18 6 2 5 23% 8409 73662 14091 39%
c d 24.41 28 206 0 24 7638 26 79955 15568 3.0 18 6 2 5 23% 8361 73662 14079 39%
c t 24.43 28 206 0 24 7638 26 79955 15568 3.0 18 6 2 5 23% 8342 73662 14079 39%
c f 24.45 28 206 0 24 7638 26 79955 15568 3.0 18 6 2 5 23% 8344 73655 14080 39%
c c 24.52 28 206 0 24 7638 26 79955 15504 3.0 18 6 2 5 23% 8377 73495 14060 39%
c d 24.53 28 206 0 24 7638 26 79955 15504 3.0 18 6 2 5 23% 8337 73495 14060 39%
c u 24.61 28 206 0 24 7638 26 79955 14772 3.0 18 6 2 5 23% 8345 73495 14060 39%
c v 24.67 28 206 0 24 7638 26 79955 14470 3.0 18 6 2 5 23% 8348 73495 14060 39%
c w 24.85 28 206 0 24 7638 26 79955 14328 3.0 18 6 2 5 23% 8348 73495 14060 39%
c x 24.96 28 206 0 24 7638 26 79955 14322 3.0 18 6 2 5 23% 8348 72621 14060 39%
c = 25.42 28 206 0 24 7638 26 79955 14322 3.0 18 6 2 5 23% 9020 72594 13722 38%
c d 25.43 28 206 0 24 7638 26 79955 14088 3.0 18 6 2 5 23% 8282 72594 13722 38%
c t 25.45 28 206 0 24 7638 26 79955 14088 3.0 18 6 2 5 23% 8237 72594 13722 38%
c
c  seconds   switched     rate         size/glue tier1    binary         remaining
c         MB   reductions   conflicts        size  tier2     irredundant
c           level   restarts      redundant    glue   trail         variables
c
c f 25.48 28 206 0 24 7638 26 79955 14088 3.0 18 6 2 5 23% 8245 72554 13727 38%
c - 25.86 28 207 0 25 7796 26 81641 13947 2.9 18 6 2 5 24% 8254 72552 13727 38%
c - 27.02 28 202 0 26 8460 25 86642 16613 2.9 18 6 2 5 24% 8268 72547 13727 38%
c - 28.13 28 199 0 27 9081 25 91743 17254 2.8 18 6 1 5 24% 8301 72546 13727 38%
c s 29.47 28 195 0 27 9743 25 95797 20960 2.9 19 7 1 5 25% 8330 71551 13727 38%
c e 29.60 28 195 0 27 9743 25 95797 20960 2.9 19 7 1 5 25% 5438 79119 12137 33%
c 2 29.60 28 195 0 27 9743 25 95797 20960 2.9 19 7 1 5 25% 5435 79119 12137 33%
c s 29.63 28 195 0 27 9743 25 95797 20960 2.9 19 7 1 5 25% 5460 78424 12137 33%
c e 29.65 28 195 0 27 9743 25 95797 20960 2.9 19 7 1 5 25% 5397 78570 12093 33%
c ^ 29.65 28 195 0 27 9743 25 95797 20960 2.9 19 7 1 5 25% 5397 78570 12093 33%
c - 29.70 28 196 0 28 9763 25 96939 13987 2.9 19 7 1 5 24% 5409 78570 12093 33%
c - 30.46 28 194 0 29 10146 25 102230 15768 2.8 18 7 1 5 24% 5468 78565 12093 33%
c c 31.23 28 193 0 29 10487 25 104594 18002 2.8 19 7 1 5 24% 5518 78279 12040 33%
c d 31.24 28 193 0 29 10487 25 104594 17808 2.8 19 7 1 5 24% 5412 78279 12040 33%
c u 31.30 28 193 0 29 10487 25 104594 16003 2.8 19 7 1 5 24% 5429 78279 12040 33%
c v 31.40 28 193 0 29 10487 25 104594 13452 2.8 19 7 1 5 24% 5438 78279 12040 33%
c w 31.62 28 193 0 29 10487 25 104594 13345 2.8 19 7 1 5 24% 5438 78279 12040 33%
c x 31.76 28 193 0 29 10487 25 104594 13344 2.8 19 7 1 5 24% 5446 77634 12040 33%
c = 32.32 28 193 0 29 10487 25 104594 13344 2.8 19 7 1 5 24% 5880 77632 11823 32%
c d 32.33 28 193 0 29 10487 25 104594 13008 2.8 19 7 1 5 24% 5395 77632 11823 32%
c
c  seconds   switched      rate          size/glue tier1    binary         remaining
c         MB   reductions    conflicts         size  tier2     irredundant
c           level   restarts        redundant    glue   trail         variables
c
c t 32.34 28 193 0 29 10487 25 104594 13008 2.8 19 7 1 5 24% 5365 77632 11823 32%
c f 32.43 28 193 0 29 10487 25 104594 13008 2.8 19 7 1 5 24% 5395 77473 11837 32%
c u 32.54 28 193 0 29 10487 25 104594 12410 2.8 19 7 1 5 24% 5400 77473 11837 32%
c v 32.59 28 193 0 29 10487 25 104594 11862 2.8 19 7 1 5 24% 5401 77473 11837 32%
c w 32.82 28 193 0 29 10487 25 104594 11564 2.8 19 7 1 5 24% 5401 77473 11837 32%
c x 32.95 28 193 0 29 10487 25 104594 11564 2.8 19 7 1 5 24% 5401 77440 11837 32%
c = 33.50 28 193 0 29 10487 25 104594 11564 2.8 19 7 1 5 24% 5405 77440 11835 32%
c d 33.51 28 193 0 29 10487 25 104594 11564 2.8 19 7 1 5 24% 5401 77440 11835 32%
c - 33.93 28 190 0 30 10665 24 107615 12084 2.8 19 7 1 5 24% 5405 77440 11835 32%
c o 34.40 28 187 0 30 10943 24 110668 14856 2.8 18 7 1 5 24% 5407 77440 11835 32%
c - 34.80 28 185 0 31 11279 24 113092 14756 2.8 19 7 1 5 25% 5410 77440 11835 32%
c - 35.69 28 182 0 32 11975 24 118659 16802 2.8 19 7 1 5 25% 5428 77438 11835 32%
c - 36.34 28 178 0 33 12379 24 124317 18328 2.8 19 7 1 5 25% 5452 77438 11835 32%
c - 37.11 28 178 0 34 12935 24 130061 19659 2.8 20 7 1 5 25% 5491 77438 11835 32%
c d 37.65 28 177 0 34 13305 24 132853 22014 2.9 20 7 1 5 25% 5446 77438 11805 32%
c u 37.70 28 177 0 34 13305 24 132853 19583 2.9 20 7 1 5 25% 5466 77438 11805 32%
c v 37.77 28 177 0 34 13305 24 132853 16532 2.9 20 7 1 5 25% 5472 77438 11805 32%
c w 38.01 28 177 0 34 13305 24 132853 16336 2.9 20 7 1 5 25% 5472 77438 11805 32%
c = 38.44 28 177 0 34 13305 24 132853 16336 2.9 20 7 1 5 25% 5504 77438 11789 32%
c d 38.45 28 177 0 34 13305 24 132853 16269 2.9 20 7 1 5 25% 5450 77438 11782 32%
c
c  seconds   switched      rate          size/glue tier1    binary         remaining
c         MB   reductions    conflicts         size  tier2     irredundant
c           level   restarts        redundant    glue   trail         variables
c
c t 38.46 28 177 0 34 13305 24 132853 16269 2.9 20 7 1 5 25% 5448 77438 11782 32%
c f 38.47 28 177 0 34 13305 24 132853 16269 2.9 20 7 1 5 25% 5451 77426 11783 32%
c c 38.50 28 177 0 34 13305 24 132853 16205 2.9 20 7 1 5 25% 5472 77333 11772 32%
c d 38.51 28 177 0 34 13305 24 132853 16205 2.9 20 7 1 5 25% 5450 77333 11772 32%
c u 38.55 28 177 0 34 13305 24 132853 15612 2.9 20 7 1 5 25% 5456 77333 11772 32%
c v 38.58 28 177 0 34 13305 24 132853 14942 2.9 20 7 1 5 25% 5458 77333 11772 32%
c w 38.76 28 177 0 34 13305 24 132853 14652 2.9 20 7 1 5 25% 5458 77333 11772 32%
c x 38.85 28 177 0 34 13305 24 132853 14620 2.9 20 7 1 5 25% 5493 74687 11772 32%
c = 39.29 28 177 0 34 13305 24 132853 14620 2.9 20 7 1 5 25% 5559 74687 11739 32%
c d 39.30 28 177 0 34 13305 24 132853 14551 2.9 20 7 1 5 25% 5475 74687 11738 32%
c t 39.31 28 177 0 34 13305 24 132853 14551 2.9 20 7 1 5 25% 5460 74687 11738 32%
c - 39.85 28 176 0 35 13671 24 135894 14870 2.8 21 7 1 5 25% 5462 74687 11738 32%
c - 40.53 28 175 0 36 14129 23 141810 17555 2.8 21 7 1 5 25% 5497 74685 11738 32%
c - 41.40 28 173 0 37 14718 23 147811 19792 2.9 21 7 1 5 26% 5517 74684 11738 32%
c - 42.23 28 171 0 38 15306 23 153895 21552 2.9 22 7 1 5 26% 5543 74684 11738 32%
c s 42.77 28 169 0 38 15643 23 157886 25170 2.9 22 8 1 5 26% 5568 74553 11738 32%
c e 42.88 28 169 0 38 15643 23 157886 25170 2.9 22 8 1 5 26% 2956 87128 10044 28%
c 2 42.88 28 169 0 38 15643 23 157886 25170 2.9 22 8 1 5 26% 2955 87128 10044 28%
c s 42.91 28 169 0 38 15643 23 157886 25170 2.9 22 8 1 5 26% 2985 85991 10044 28%
c e 42.93 28 169 0 38 15643 23 157886 25170 2.9 22 8 1 5 26% 2946 86195 10000 27%
c
c  seconds   switched      rate          size/glue tier1    binary         remaining
c         MB   reductions    conflicts         size  tier2     irredundant
c           level   restarts        redundant    glue   trail         variables
c
c ^ 42.93 28 169 0 38 15643 23 157886 25170 2.9 22 8 1 5 26% 2946 86195 10000 27%
c - 43.40 28 168 0 39 16010 23 160059 16699 2.9 22 8 1 4 26% 2947 86194 10000 27%
c o 43.50 28 167 0 39 16087 23 160699 17277 2.9 22 8 1 4 26% 2953 86194 10000 27%
c d 43.93 28 165 0 39 16444 23 164858 20905 2.9 22 8 1 4 26% 2953 86193 9991 27%
c u 43.97 28 165 0 39 16444 23 164858 18535 2.9 22 8 1 4 26% 2963 86193 9991 27%
c v 44.03 28 165 0 39 16444 23 164858 15869 2.9 22 8 1 4 26% 2969 86193 9991 27%
c w 44.20 28 165 0 39 16444 23 164858 15667 2.9 22 8 1 4 26% 2969 86193 9991 27%
c x 44.27 28 165 0 39 16444 23 164858 15667 2.9 22 8 1 4 26% 2969 86177 9991 27%
c = 44.78 28 165 0 39 16444 23 164858 15667 2.9 22 8 1 4 26% 3255 85783 9812 27%
c d 44.78 28 165 0 39 16444 23 164858 15048 2.9 22 8 1 4 26% 2947 85779 9812 27%
c t 44.79 28 165 0 39 16444 23 164858 15048 2.9 22 8 1 4 26% 2901 85779 9812 27%
c f 44.89 28 165 0 39 16444 23 164858 15048 2.9 22 8 1 4 26% 2937 85327 9833 27%
c u 44.93 28 165 0 39 16444 23 164858 14508 2.9 22 8 1 4 26% 2937 85327 9833 27%
c v 44.97 28 165 0 39 16444 23 164858 14044 2.9 22 8 1 4 26% 2937 85327 9833 27%
c w 45.16 28 165 0 39 16444 23 164858 13211 2.9 22 8 1 4 26% 2937 85327 9833 27%
c = 45.67 28 165 0 39 16444 23 164858 13211 2.9 22 8 1 4 26% 2955 85327 9824 27%
c d 45.67 28 165 0 39 16444 23 164858 13201 2.9 22 8 1 4 26% 2936 85327 9824 27%
c - 45.75 28 164 0 40 16462 23 166305 12446 2.8 22 8 1 4 25% 2918 85327 9824 27%
c i 45.98 28 161 0 40 16664 22 170376 16000 2.8 21 8 1 4 25% 2934 85325 9823 27%
c i 46.08 28 159 0 40 16797 22 172100 17487 2.8 21 8 1 4 25% 2947 85322 9821 27%
c
c  seconds   switched      rate          size/glue tier1    binary        remaining
c         MB   reductions    conflicts         size  tier2     irredundant
c           level   restarts        redundant    glue   trail        variables
c
c i 46.11 28 159 0 40 16834 22 172534 17861 2.8 21 8 1 4 25% 2953 85322 9820 27%
c - 46.12 28 159 0 41 16834 22 172630 15008 2.8 21 8 1 4 25% 2940 85322 9820 27%
c i 46.31 28 155 0 41 17056 21 176589 18472 2.8 21 8 1 4 24% 2953 85321 9819 27%
c i 46.31 28 155 0 41 17056 21 176679 18543 2.8 21 8 1 4 24% 2953 85321 9818 27%
c i 46.34 28 153 0 41 17080 21 177932 19567 2.8 21 8 1 4 24% 2975 85320 9817 27%
c - 46.38 28 152 0 42 17113 21 179034 16907 2.8 21 8 1 5 24% 2967 85319 9817 27%
c i 46.46 28 149 0 42 17204 20 181479 18956 2.7 21 8 1 5 23% 2988 85314 9815 27%
c i 46.46 28 149 0 42 17205 20 181587 19043 2.7 21 8 1 5 23% 2992 85314 9814 27%
c i 46.46 28 148 0 42 17219 20 182449 19711 2.7 21 8 1 5 23% 3010 85313 9809 27%
c i 46.46 28 148 0 42 17219 20 182450 19711 2.7 21 8 1 5 23% 3010 85313 9808 27%
c i 46.47 28 148 0 42 17220 20 182502 19754 2.7 21 8 1 5 23% 3013 85313 9806 27%
c i 46.47 28 148 0 42 17220 20 182512 19755 2.7 21 8 1 5 23% 3015 85313 9803 27%
c } 46.47 28 148 0 42 17220 20 182514 19755 2.7 21 8 1 5 23% 3015 85313 9801 27%
c 0 46.47 28 148 0 42 17220 20 182514 19755 2.7 21 8 1 5 23% 3015 85313 9801 27%
c
c ---- [ result ] ------------------------------------------------------------
c
s UNSATISFIABLE
c
c ---- [ profiling ] ---------------------------------------------------------
c
c          31.22   67.19 %  search
c          31.22   67.19 %  focused
c          14.68   31.59 %  simplify
c          13.99   30.11 %  probe
c           6.05   13.02 %  sweep
c           5.34   11.48 %  vivify
c           1.00    2.14 %  eliminate
c           0.96    2.07 %  factor
c           0.77    1.66 %  congruence
c           0.63    1.37 %  substitute
c           0.48    1.03 %  preprocess
c           0.25    0.54 %  reduce
c           0.18    0.39 %  subsume
c           0.16    0.34 %  fastel
c           0.15    0.33 %  transitive
c           0.08    0.18 %  backbone
c           0.06    0.12 %  lucky
c           0.04    0.08 %  parse
c =============================================
c          46.47  100.00 %  total
c
c ---- [ statistics ] --------------------------------------------------------
c
c chronological:                         6146                3 %  conflicts
c conflicts:                           182514             3927.68 per second
c congruent:                             3924               11 %  variables
c decisions:                          3838260               21.03 per conflict
c eliminated:                           20277               56 %  variables
c factored:                              3766               10 %  variables
c fast_eliminated:                      11221               55 %  eliminated
c fast_strengthened:                       10                0 %  per strengthened
c fast_subsumed:                           71                1 %  per subsumed
c iterations:                              13                0 %  variables
c propagations:                     154809194          3331473    per second
c reductions:                              42             4346    interval
c reordered:                                6            30419    interval
c restarts:                             17220               11    interval
c strengthened:                          5881                0 %  checks
c substituted:                          10102               28 %  variables
c subsumed:                             13784                0 %  checks
c switched:                                 0                0    interval
c vivified:                             86397               12 %  checks
c
c ---- [ glue usage ] --------------------------------------------------------
c
c focused glue 1 used 296627 clauses 60.31% accumulated 60.31% tier1
c focused glue 2 used  96989 clauses 19.72% accumulated 80.04%
c focused glue 3 used  30677 clauses  6.24% accumulated 86.27%
c focused glue 4 used  17820 clauses  3.62% accumulated 89.90%
c focused glue 5 used  11349 clauses  2.31% accumulated 92.20% tier2
c
c ---- [ resources ] ---------------------------------------------------------
c
c maximum-resident-set-size:         29757440 bytes         28 MB
c process-time:                            46s              46.47 seconds
c
c ---- [ shutting down ] -----------------------------------------------------
c
c exit 20
